solution status: optimal solution found
objective value:                         40005.054142
x5                                                  1 	(obj:1e-05)
x12                                                 1 	(obj:1e-05)
x14                                                 1 	(obj:1e-05)
x19                                                 1 	(obj:1e-05)
x43                                                 1 	(obj:1e-05)
x47                                                 1 	(obj:1e-05)
x49                                                 1 	(obj:1e-05)
x53                                                 1 	(obj:1e-05)
x86                                                 1 	(obj:1e-05)
x94                                                 1 	(obj:1e-05)
x115                                                1 	(obj:1e-05)
x120                                                1 	(obj:1e-05)
x124                                                1 	(obj:1e-05)
x129                                                1 	(obj:1e-05)
x148                                                1 	(obj:1e-05)
x151                                     40005.053992 	(obj:1)
